experiment/data/lkh-res/Vrp-Set-P-n70/Vrp-Set-P-n70-lkh/0.lkh1.tour
NAME : 0.83271.tour
COMMENT : Length = 83271
COMMENT : Found by LKH-3 [Keld Helsgaun] Tue Apr  9 02:42:51 2024
TYPE : TOUR
DIMENSION : 79
TOUR_SECTION
1
27
13
40
10
41
18
73
34
2
44
42
43
65
23
71
5
46
28
53
47
35
76
11
32
26
56
19
51
33
74
3
22
62
29
63
7
75
6
38
21
61
70
37
48
49
72
69
31
30
16
58
14
55
20
9
77
52
17
64
24
57
50
25
45
4
78
12
67
66
39
59
79
8
54
60
15
36
68
-1
EOF
